159
10000
4020
1725
3752
4442
3343
2577
2700
3796
379
3022
3184
2770
5268
806
6998
193
3332
758
1540
6179
25
2779
1529
733
3002
2339
442
3301
4570
2520
7184
766
3732
3872
5152
3570
3748
1845
1337
5894
4733
3629
85
1044
2509
2782
1937
2917
2413
5462
5956
5376
1472
2221
4026
888
6187
2259
1176
1523
664
3813
635
4661
356
3462
278
3022
1306
2928
894
3401
3535
2547
2219
4050
4732
6816
3909
997
840
1389
1754
915
631
2851
3354
5
1105
4559
3460
2852
7341
4163
435
768
3567
3608
6472
2893
2457
2130
4099
635
30
1160
2691
287
124
1203
3733
879
4136
5058
4269
6865
1562
257
3301
4902
3794
5896
3517
261
6433
444
802
304
1362
2100
4547
355
1278
4538
1206
1120
2879
1339
4068
5980
2717
6251
437
3266
4044
3592
468
4777
3892
3598
1114
5098
4506
6807
1713
823
2779
1988
5223
